Geometry = GenFormat {
60 C
C
1   1   2.9485787000E+00  -7.3513336000E-01   1.7733625800E+00
2   1   3.0144490200E+00   6.8081049000E-01   1.7866975800E+00
3   1   2.0358978800E+00   1.4185447100E+00   2.5643762400E+00
4   1   1.6161497300E+00   2.5679698500E+00   1.8081962200E+00
5   1   3.2162343200E+00  -1.4911591800E+00   5.7452676000E-01
6   1   2.3234450400E+00  -2.6197303300E+00   5.9902848000E-01
7   1   1.0509955900E+00   7.1209658000E-01   3.3022002200E+00
8   1   1.0151252100E+00  -6.9453384000E-01   3.3331454000E+00
9   1  -3.4517931000E-01  -1.1455521800E+00   3.3442662000E+00
10   1   2.9407495000E-01   2.9984090400E+00   1.8151109300E+00
11   1  -7.0180564000E-01   2.3032860400E+00   2.6383735400E+00
12   1  -1.9440385400E+00   2.3218000700E+00   1.8560279000E+00
13   1   3.4012684600E+00  -7.4231153000E-01  -6.5147574000E-01
14   1   3.3039597300E+00   6.7075930000E-01  -6.2466085000E-01
15   1   2.7999084300E+00   1.1234867000E+00  -1.9495503500E+00
16   1   1.7121184600E+00  -3.0432832900E+00  -5.8999044000E-01
17   1   1.9440416600E+00  -2.3217980100E+00  -1.8560288300E+00
18   1   7.0180344000E-01  -2.3032858100E+00  -2.6383738400E+00
19   1   2.3367770300E+00   2.6170693300E+00   5.7203918000E-01
20   1   2.0286377000E+00  -1.4363776800E+00   2.5994068200E+00
21   1  -7.2019271000E-01  -2.3463567800E+00   2.6996571300E+00
22   1   2.7911837000E-01  -3.0456940600E+00   1.8826751900E+00
23   1  -3.7858067000E-01  -3.5103819400E+00   6.1339981000E-01
24   1   3.2223957700E+00   1.4305291100E+00   5.5568917000E-01
25   1  -3.3359572000E-01   1.1378415500E+00   3.3522231500E+00
26   1  -2.8228687700E+00   1.1951716600E+00   1.9067070400E+00
27   1  -2.4347166700E+00   2.5922910000E-02   2.6738850500E+00
28   1  -2.7999061400E+00  -1.1234889200E+00   1.9495530100E+00
29   1   1.6193420700E+00  -2.6322553000E+00   1.8378769100E+00
30   1   1.9531318200E+00   2.2442623900E+00  -1.8827037800E+00
31   1   1.7271192800E+00   2.9622541700E+00  -6.3926225000E-01
32   1   3.7858236000E-01   3.5103782500E+00  -6.1339981000E-01
33   1   2.8228644400E+00  -1.1951733700E+00  -1.9067091400E+00
34   1   3.3359798000E-01  -1.1378448100E+00  -3.3522195900E+00
35   1   1.1893825500E+00  -3.1853000000E-03  -3.3357825400E+00
36   1   3.4518132000E-01   1.1455523300E+00  -3.3442643700E+00
37   1  -2.7912060000E-01   3.0456912700E+00  -1.8826758800E+00
38   1  -1.1893847600E+00   3.1858800000E-03   3.3357865600E+00
39   1   3.1351789000E-01  -3.4068288100E+00  -5.6507809000E-01
40   1   2.4347223800E+00  -2.5920820000E-02  -2.6738847000E+00
41   1  -1.7121206600E+00   3.0432843200E+00   5.8999327000E-01
42   1  -3.1351749000E-01   3.4068357000E+00   5.6507838000E-01
43   1  -1.9531285700E+00  -2.2442674500E+00   1.8827026800E+00
44   1  -1.7271148600E+00  -2.9622542300E+00   6.3926218000E-01
45   1  -2.9407684000E-01  -2.9984124200E+00  -1.8151099800E+00
46   1   7.2019153000E-01   2.3463584900E+00  -2.6996623300E+00
47   1  -1.6193426000E+00   2.6322575500E+00  -1.8378787200E+00
48   1  -2.3234452400E+00   2.6197322100E+00  -5.9902933000E-01
49   1  -3.2162371500E+00   1.4911573100E+00  -5.7452700000E-01
50   1  -3.3039721500E+00  -6.7075863000E-01   6.2466031000E-01
51   1  -1.0151238000E+00   6.9453131000E-01  -3.3331479200E+00
52   1  -2.9485771000E+00   7.3513586000E-01  -1.7733647900E+00
53   1  -3.4012707200E+00   7.4230844000E-01   6.5147809000E-01
54   1  -2.3367727000E+00  -2.6170687400E+00  -5.7203700000E-01
55   1  -1.6161481200E+00  -2.5679632900E+00  -1.8081983800E+00
56   1  -2.0358996200E+00  -1.4185477200E+00  -2.5643770700E+00
57   1  -3.0144508500E+00  -6.8081039000E-01  -1.7866979000E+00
58   1  -1.0509978600E+00  -7.1209420000E-01  -3.3022007700E+00
59   1  -3.2223932000E+00  -1.4305283200E+00  -5.5568688000E-01
60   1  -2.0286341500E+00   1.4363779200E+00  -2.5994079500E+00
}
Hamiltonian = DFTB {
  SCC = Yes
  SCCTolerance = 1e-06
  MaxSCCIterations = 100
  Mixer = broyden {
    MixingParameter = 0.200000000000000
    InverseJacobiWeight = 1.000000000000000E-002
    MinimalWeight = 1.00000000000000
    MaximalWeight = 100000.000000000
    WeightFactor = 1.000000000000000E-002
  }
  ReadInitialCharges = No
  Charge = 0.0
  Filling = Fermi {
    Temperature [K] = 0.0
  }
  MaxAngularMomentum = {
    C = 'p'
  }
  SlaterKosterFiles = Type2FileNames {
    Prefix = '/projects/academic/cyberwksp21/Students/qingxin/UNIxMD/Tutorials_pyUNIxMD/demo_pyunixmd_dftb/mio-1-1/'
    Separator = '-'
    Suffix = '.skf'
    LowerCaseTypeName = No
  }
  PolynomialRepulsive = {}
  ShellResolvedSCC = No
  OldSKInterpolation = No
  RangeSeparated = None {}
  InitialCharges = {}
  HCorrection = None {}
  SpinPolarisation = {}
  ElectricField = {}
  Solver = RelativelyRobust {}
  OnSiteCorrection = {}
  Dispersion = {}
  Solvation = {}
  Electrostatics = GammaFunctional {}
  ThirdOrder = No
  ThirdOrderFull = No
  Differentiation = FiniteDiff {
    Delta = 1.220703125000000E-004
  }
  ForceEvaluation = "Traditional"
}
Analysis = {
  CalculateForces = Yes
  WriteBandOut = Yes
  WriteEigenvectors = Yes
  MullikenAnalysis = Yes
  ProjectStates = {}
  WriteNetCharges = No
  AtomResolvedEnergies = No
  EigenvectorsAsText = No
}
Options = {
  WriteDetailedXml = Yes
  WriteDetailedOut = Yes
  TimingVerbosity = -1
  WriteAutotestTag = No
  WriteResultsTag = No
  RestartFrequency = 20
  RandomSeed = 0
  WriteHS = No
  WriteRealHS = No
  MinimiseMemoryUsage = No
  ShowFoldedCoords = No
  WriteChargesAsText = No
}
ParserOptions = {
  ParserVersion = 9
  WriteHSDInput = Yes
  StopAfterParsing = No
  IgnoreUnprocessedNodes = No
}
Reks = None {}
Driver = {}
ExcitedState = {}
