Geometry = GenFormat{
  <<< 'geometry.gen'
}
Hamiltonian = DFTB{
  SCC = Yes
  SCCTolerance = 1e-06
  MaxSCCIterations = 100
  Mixer = broyden{}
  ReadInitialCharges = No
  Charge = 0.0
  Filling = Fermi{
    Temperature[K] = 0.0
  }
  MaxAngularMomentum = {
    C = 'p'
  }
  SlaterKosterFiles = Type2FileNames{
    Prefix = '/projects/academic/cyberwksp21/Students/qingxin/UNIxMD/Tutorials_pyUNIxMD/demo_pyunixmd_dftb/mio-1-1/'
    Separator = '-'
    Suffix = '.skf'
    LowerCaseTypeName = No
  }
}
Analysis = {
  CalculateForces = Yes
  WriteBandOut = Yes
  WriteEigenvectors = Yes
  MullikenAnalysis = Yes
}
Options = {
  WriteDetailedXml = Yes
  WriteDetailedOut = Yes
  TimingVerbosity = -1
}
ParserOptions = {
  ParserVersion = 8
}
